NAME : portcgen-17-31
COMMENT : portcgen N=17, seed=31
TYPE : TSP
DIMENSION : 17
EDGE_WEIGHT_TYPE : EUC_2D
NODE_COORD_SECTION
1 -105937 142642
2 -284578 -16293
3 -84209 -233949
4 48441 106740
5 -397948 -310624
6 106654 -242433
7 286004 -238776
8 -191525 239672
9 -39960 57021
10 -473233 -179090
11 -198998 -268900
12 -194768 -82260
13 18655 -571501
14 -154582 139701
15 -43793 67251
16 -358012 283120
17 586863 184815
